Route #1: 36 5 27 13 40 2 30 24 32 14 47
Route #2: 26 28 15 43 31 11 17 44 25 8 4 19 1 37 6 38 22 46 21 9 12 10 7
Route #3: 33 29 18 20 41 49 16 50 45 3 35 48 42 39 23 34
Route #4: 
Route #5: 
Route #6: 
Route #7: 
cost 915.133410003079
